NAME : morphed23-5-5
COMMENT : Generated using the function morphInstances from the R-package netgen (Bossek,2015) - Number of clusters: 5 Alpha: 0.5
TYPE : TSP
DIMENSION : 23
EDGE_WEIGHT_TYPE : EUC_2D
NODE_COORD_SECTION
1 18.9989200601 17.9473321618
2 81.6476363607 23.1212638221
3 93.4450505716 44.684233092
4 24.3791149029 48.6449975841
5 21.6320269842 97.2684456847
6 82.3276775541 20.8774712697
7 48.0002408304 96.7258832794
8 87.8456048127 41.3709888472
9 97.4621147611 20.5348719733
10 13.8144902335 25.8177216332
11 22.8313031699 4.5173527064
12 35.3529729931 6.4605437388
13 49.5882405713 51.9431278998
14 60.902162358 58.5864377597
15 19.491625848 62.8629246699
16 17.5478350537 50.0167976934
17 51.2171617758 42.5017875765
18 92.7222151195 61.6798703574
19 62.4701848451 33.9614759141
20 64.6174961302 89.7952607678
21 93.8624269795 44.7528722204
22 56.3012090772 95.9127146056
23 19.5921973158 57.7802326998
EOF
